00:00.0 clingo version 5.5.1
00:00.0 Reading from ...ols/../encodings/CTW_nat_optimal_V2.lp ...
30:00.14 UNKNOWN
30:00.228 
30:00.233 TIME LIMIT   : 1
30:00.255 Models       : 0+
30:00.258 Calls        : 1
30:00.261 Time         : 1800.268s (Solving: 0.00s 1st Model: 0.00s Unsat: 0.00s)
30:00.262 CPU Time     : 118.852s
